; Copyright (c) 2026 The RIINA Authors. All rights reserved.
; Copyright (c) 2026 The RIINA Authors.
; Auto-generated from 02_FORMAL/coq/domains/uiux/Transitions.v (30 assertions)
; Generated by scripts/generate-full-stack.py
; Module: Transitions

(set-logic ALL)
(set-option :produce-models true)

; lerp_position (matches Coq: Definition lerp_position)
(define-fun lerp_position ((t R)) Position
  true)

; current_position (matches Coq: Definition current_position)
(define-fun current_position ((trans SharedElementTransition)) Position
  true)

; lerp (matches Coq: Definition lerp)
(define-fun lerp () R true)

; shared_element_at_zero_is_source (matches Coq: Theorem shared_element_at_zero_is_source)
(assert (= true true)) ; shared_element_at_zero_is_source [untranslatable]

; shared_element_at_one_is_dest (matches Coq: Theorem shared_element_at_one_is_dest)
(assert (= true true)) ; shared_element_at_one_is_dest [untranslatable]

; transition_context_preserved (matches Coq: Theorem transition_context_preserved)
(assert (forall ((cpt ContextPreservingTransition)) (= (context_preserved cpt) true))) ; transition_context_preserved

; hero_element_always_matched (matches Coq: Theorem hero_element_always_matched)
(assert (forall ((hero HeroTransition)) (= (hero_element_matched hero) true))) ; hero_element_always_matched

; lerp_monotonic_x (matches Coq: Lemma lerp_monotonic_x)
(assert (= true true)) ; lerp_monotonic_x [untranslatable]

; progress_bounds_valid (matches Coq: Lemma progress_bounds_valid)
(assert (= true true)) ; progress_bounds_valid [untranslatable]

; 1 (matches Coq: Theorem 1)
(assert (= true true)) ; 1 [untranslatable]

; 2 (matches Coq: Theorem 2)
(assert (= true true)) ; 2 [untranslatable]

; 3 (matches Coq: Theorem 3)
(assert (= true true)) ; 3 [untranslatable]

; 4 (matches Coq: Theorem 4)
(assert (= true true)) ; 4 [untranslatable]

; 5 (matches Coq: Theorem 5)
(assert (= true true)) ; 5 [untranslatable]

; 6 (matches Coq: Theorem 6)
(assert (= true true)) ; 6 [untranslatable]

; 7 (matches Coq: Theorem 7)
(assert (= true true)) ; 7 [untranslatable]

; 8 (matches Coq: Theorem 8)
(assert (= true true)) ; 8 [untranslatable]

; 9 (matches Coq: Theorem 9)
(assert (= true true)) ; 9 [untranslatable]

; 10 (matches Coq: Theorem 10)
(assert (= true true)) ; 10 [untranslatable]

; 11 (matches Coq: Theorem 11)
(assert (= true true)) ; 11 [untranslatable]

; z_index_assignable (matches Coq: Theorem z_index_assignable)
(assert (= true true)) ; z_index_assignable [untranslatable]

; 12 (matches Coq: Theorem 12)
(assert (= true true)) ; 12 [untranslatable]

; transition_idle_zero (matches Coq: Theorem transition_idle_zero)
(assert (forall ((tr Transition)) (=> (= (tr_state tr) TSIdle) (= (tr_progress tr) 0)))) ; transition_idle_zero

; 13 (matches Coq: Theorem 13)
(assert (= true true)) ; 13 [untranslatable]

; parallel_group_duration (matches Coq: Theorem parallel_group_duration)
(assert (= true true)) ; parallel_group_duration [untranslatable]

; 14 (matches Coq: Theorem 14)
(assert (= true true)) ; 14 [untranslatable]

; easing_boundary_zero (matches Coq: Theorem easing_boundary_zero)
(assert (forall ((ef EasingFunction)) (= (ef_eval ef 0) 0))) ; easing_boundary_zero

; easing_boundary_one (matches Coq: Theorem easing_boundary_one)
(assert (forall ((ef EasingFunction)) (= (ef_eval ef 1) 1))) ; easing_boundary_one

; 15 (matches Coq: Theorem 15)
(assert (= true true)) ; 15 [untranslatable]

; lerp_at_zero (matches Coq: Theorem lerp_at_zero)
(assert (= true true)) ; lerp_at_zero [untranslatable]

; lerp_at_one (matches Coq: Theorem lerp_at_one)
(assert (= true true)) ; lerp_at_one [untranslatable]

; crossfade_outgoing_valid (matches Coq: Theorem crossfade_outgoing_valid)
(assert (= true true)) ; crossfade_outgoing_valid [untranslatable]

; crossfade_incoming_valid (matches Coq: Theorem crossfade_incoming_valid)
(assert (= true true)) ; crossfade_incoming_valid [untranslatable]

; Verify all assertions are satisfiable
(check-sat)
(exit)
